c
c start with comments
c
p cnf 41 28
20 -34 0
42 -35 10 22 -11 0
-41 -16 -6 0
-16 -5 -30 -27 0
-17 41 0
-12 -24 0
6 29 0
-4 13 0
-38 -15 -15 0
-42 -36 0
43 -3 19 0
-41 -29 -11 0
-30 -43 -28 18 0
-29 -30 -20 0
-9 1 0
28 16 0
-33 -33 0
26 -8 0
32 38 0
-28 22 31 0
-6 4 12 37 0
-41 23 27 11 -21 8 0
4 -31 -21 -11 -6 0
18 -35 -31 0
-1 -29 -5 0
40 -18 0
24 -14 0
39 -35 25 0